\ This file has been generated by DOcplex
\ ENCODING=ISO-8859-1
\Problem name: {self.PROBLEM.name} LEADER SOTA problem

Maximize
 obj: V
Subject To
 c1: V + 57.260000000000 a0_0 + 131.920000000000 a0_1 + 131.920000000000 a0_2
      <= 0
 c2: V + 131.920000000000 a0_0 + 100.920000000000 a0_1 + 185.920000000000 a0_2
      <= 0
 c3: V + 131.920000000000 a0_0 + 185.920000000000 a0_1 + 100.920000000000 a0_2
      <= 0
 c4: a0_0 + a0_1 + a0_2 = 1

Bounds
       a0_0 <= 1
       a0_1 <= 1
       a0_2 <= 1
       V Free
End
